data/benchmarks/bayes/90-16-4-q.cnf
p cnf 1216 1051
c weights 0.60137 0.39863000000000004 1 1 1 1 1 1 1 1 1 1 1 1 1 1 1 1 1 1 1 1 1 1 1 1 1 1 1 1 1 1 1 1 1 1 1 1 1 1 1 1 1 1 1 1 1 1 1 1 1 1 1 1 1 1 1 1 1 1 1 1 1 1 1 1 1 1 1 1 1 1 1 1 1 1 1 1 1 1 1 1 1 1 1 1 1 1 1 1 1 1 1 1 1 1 1 1 1 1 1 1 1 1 1 1 1 1 1 1 1 1 1 1 1 1 1 1 1 1 1 1 1 1 1 1 1 1 1 1 1 1 1 1 1 1 1 1 1 1 1 1 1 1 1 1 1 1 1 1 1 1 1 1 1 1 1 1 1 1 1 1 1 1 1 1 1 1 1 1 1 1 1 1 1 1 1 1 1 1 1 1 1 1 1 1 1 1 1 1 1 1 1 1 1 1 1 1 1 1 1 1 1 1 1 1 1 1 1 1 1 1 1 1 1 1 1 1 1 1 1 1 1 1 1 1 1 1 1 1 1 1 1 1 1 1 1 1 1 1 1 1 1 1 1 1 1 1 1 1 1 1 1 1 1 1 1 1 1 1 1 1 1 1 1 1 1 1 1 1 1 1 1 1 1 1 1 1 1 1 1 1 1 1 1 1 1 1 1 1 1 1 1 1 1 1 1 1 1 1 1 1 1 1 1 1 1 1 1 1 1 1 1 1 1 1 1 1 1 1 1 1 1 1 1 1 1 1 1 1 1 1 1 1 1 1 1 1 1 1 1 1 1 1 1 1 1 1 1 1 1 1 1 1 1 1 1 1 1 1 1 1 1 1 1 1 1 1 1 1 1 1 1 1 1 1 1 1 1 1 1 1 1 1 1 1 1 1 1 1 1 1 1 1 1 1 1 1 1 1 1 1 1 1 1 1 1 1 1 1 1 1 1 1 1 1 1 1 1 1 1 1 1 1 1 1 1 1 1 1 1 1 1 1 1 1 1 1 1 1 1 1 1 1 1 1 1 1 1 1 1 1 1 1 1 1 1 1 1 1 1 1 1 1 1 1 1 1 1 1 1 1 1 1 1 1 1 1 1 1 1 1 1 1 1 1 1 1 1 1 1 1 1 1 1 1 1 1 1 1 1 1 1 1 1 1 1 1 1 1 1 1 0.5 0.5 0.5 0.5 0.5 0.5 0.5 0.5 0.206924 0.793076 0.164681 0.835319 0.772536 0.227464 0.412235 0.587765 0.5 0.5 0.5 0.5 0.5 0.5 0.5 0.5 0.579131 0.42086900000000005 0.322148 0.677852 0.5 0.5 0.5 0.5 0.5 0.5 0.5 0.5 0.5 0.5 0.5 0.5 0.5 0.5 0.5 0.5 0.5 0.5 0.5 0.5 0.5 0.5 0.5 0.5 0.5 0.5 0.5 0.5 0.5 0.5 0.5 0.5 0.5 0.5 0.5 0.5 0.5 0.5 0.5 0.5 0.5 0.5 0.5 0.5 0.5 0.5 0.5 0.5 0.5 0.5 0.5 0.5 0.5 0.5 0.5 0.5 0.5 0.5 0.5 0.5 0.5 0.5 0.5 0.5 0.5 0.5 0.5 0.5 0.5 0.5 0.5 0.5 0.5 0.5 0.5 0.5 0.5 0.5 0.5 0.5 0.5 0.5 0.5 0.5 0.5 0.5 0.5 0.5 0.5 0.5 0.5 0.5 0.5 0.5 0.5 0.5 0.5 0.5 0.5 0.5 0.5 0.5 0.5 0.5 0.5 0.5 0.5 0.5 0.5 0.5 0.5 0.5 0.5 0.5 0.5 0.5 0.5 0.5 0.5 0.5 0.5 0.5 0.5 0.5 0.5 0.5 0.5 0.5 0.5 0.5 0.5 0.5 0.5 0.5 0.5 0.5 0.5 0.5 0.5 0.5 0.5 0.5 0.5 0.5 0.5 0.5 0.5 0.5 0.5 0.5 0.5 0.5 0.5 0.5 0.5 0.5 0.5 0.5 0.5 0.5 0.5 0.5 0.5 0.5 0.5 0.5 0.5 0.5 0.5 0.5 0.5 0.5 0.5 0.5 0.5 0.5 0.5 0.5 0.5 0.5 0.5 0.5 0.5 0.5 0.5 0.5 0.5 0.5 0.5 0.5 0.5 0.5 0.5 0.5 0.5 0.5 0.5 0.5 0.5 0.5 0.5 0.5 0.5 0.5 0.5 0.5 0.5 0.5 0.5 0.5 0.5 0.5 0.5 0.5 0.5 0.5 0.5 0.5 0.5 0.5 0.5 0.5 0.5 0.5 0.5 0.5 0.5 0.5 0.5 0.5 0.5 0.5 0.5 0.5 0.5 0.5 0.5 0.5 0.5 0.5 0.5 0.5 0.5 0.5 0.5 0.5 0.5 0.5 0.5 0.5 0.5 0.5 0.5 0.5 0.5 0.5 0.886318 0.11368199999999995 0.35689 0.6431100000000001 0.683679 0.31632099999999996 0.824305 0.17569500000000005 0.5 0.5 0.5 0.5 0.5 0.5 0.5 0.5 0.5 0.5 0.5 0.5 0.5 0.5 0.5 0.5 0.5 0.5 0.5 0.5 0.5 0.5 0.5 0.5 0.5 0.5 0.5 0.5 0.5 0.5 0.5 0.5 0.5 0.5 0.5 0.5 0.5 0.5 0.5 0.5 0.5 0.5 0.5 0.5 0.5 0.5 0.5 0.5 0.5 0.5 0.5 0.5 0.5 0.5 0.5 0.5 0.5 0.5 0.5 0.5 0.5 0.5 0.5 0.5 0.5 0.5 0.5 0.5 0.5 0.5 0.5 0.5 0.5 0.5 0.5 0.5 0.5 0.5 0.5 0.5 0.5 0.5 0.5 0.5 0.5 0.5 0.5 0.5 0.5 0.5 0.5 0.5 0.5 0.5 0.5 0.5 0.5 0.5 0.5 0.5 0.5 0.5 0.5 0.5 0.5 0.5 0.5 0.5 0.5 0.5 0.5 0.5 0.5 0.5 0.5 0.5 0.5 0.5 0.5 0.5 0.5 0.5 0.5 0.5 0.5 0.5 0.5 0.5 0.5 0.5 0.5 0.5 0.5 0.5 0.5 0.5 0.5 0.5 0.5 0.5 0.5 0.5 0.5 0.5 0.5 0.5 0.5 0.5 0.5 0.5 0.5 0.5 0.5 0.5 0.5 0.5 0.5 0.5 0.5 0.5 0.379327 0.620673 0.967827 0.03217300000000001 0.427679 0.5723210000000001 0.717762 0.282238 0.5 0.5 0.5 0.5 0.5 0.5 0.5 0.5 0.5 0.5 0.5 0.5 0.5 0.5 0.5 0.5 0.5 0.5 0.5 0.5 0.5 0.5 0.5 0.5 0.5 0.5 0.5 0.5 0.5 0.5 0.5 0.5 0.5 0.5 0.5 0.5 0.5 0.5 0.5 0.5 0.5 0.5 0.5 0.5 0.5 0.5 0.5 0.5 0.5 0.5 0.5 0.5 0.5 0.5 0.5 0.5 0.5 0.5 0.5 0.5 0.5 0.5 0.5 0.5 0.5 0.5 0.5 0.5 0.5 0.5 0.5 0.5 0.5 0.5 0.5 0.5 0.5 0.5 0.5 0.5 0.5 0.5 0.5 0.5 0.5 0.5 0.5 0.5 0.5 0.5 0.5 0.5 0.5 0.5 0.5 0.5 0.5 0.5 0.5 0.5 0.5 0.5 0.5 0.5 0.5 0.5 0.5 0.5 0.5 0.5 0.5 0.5 0.5 0.5 0.5 0.5 0.5 0.5 0.5 0.5 0.5 0.5 0.5 0.5 0.5 0.5 0.5 0.5 0.5 0.5 0.5 0.5 0.5 0.5 0.5 0.5 0.5 0.5 0.5 0.5 0.5 0.5 0.5 0.5 0.5 0.5 0.5 0.5 0.5 0.5 0.5 0.5 0.5 0.5 0.5 0.5 0.565464 0.43453600000000003 0.493457 0.506543 0.232529 0.767471 0.834385 0.16561499999999996 0.461256 0.538744 0.975815 0.024185000000000012 0.205514 0.794486 0.410284 0.589716 0.5 0.5 0.5 0.5 0.5 0.5 0.5 0.5 0.5 0.5 0.5 0.5 0.5 0.5 0.5 0.5 0.5 0.5 0.5 0.5 0.5 0.5 0.5 0.5 0.5 0.5 0.5 0.5 0.5 0.5 0.5 0.5 0.5 0.5 0.5 0.5 0.5 0.5 0.5 0.5 0.5 0.5 0.5 0.5 0.5 0.5 0.5 0.5 0.5 0.5 0.5 0.5 0.5 0.5 0.5 0.5 0.5 0.5 0.5 0.5 0.434953 0.5650470000000001 0.277318 0.722682 0.719347 0.28065300000000004 0.0145384 0.9854616 0.5 0.5 0.5 0.5 0.5 0.5 0.5 0.5 0.5 0.5 0.5 0.5 0.5 0.5 0.5 0.5 0.176989 0.8230109999999999 0.874302 0.12569799999999998 0.695529 0.30447100000000005 0.530812 0.46918800000000005 0.912558 0.08744200000000002 0.86045 0.13954999999999995 0.215726 0.784274 0.53987 0.46013000000000004 0.5 0.5 0.5 0.5 0.5 0.5 0.5 0.5 0.5 0.5 0.5 0.5 0.5 0.5 0.5 0.5 0.5 0.5 0.5 0.5 0.5 0.5 0.5 0.5 0.5 0.5 0.5 0.5 0.5 0.5 0.5 0.5 0.885953 0.11404700000000001 0.866599 0.133401 0.777927 0.22207299999999996 0.581482 0.41851799999999995 0.5 0.5 0.5 0.5 0.5 0.5 0.5 0.5 0.5 0.5 0.5 0.5 0.5 0.5 0.5 0.5 0.5 0.5 0.5 0.5 0.5 0.5 0.5 0.5 0.5 0.5 0.5 0.5 0.5 0.5 0.5 0.5 0.5 0.5 0.5 0.5 0.5 0.5 0.5 0.5 0.5 0.5 0.5 0.5 0.5 0.5 0.5 0.5 0.5 0.5 0.5 0.5 0.5 0.5 0.5 0.5 0.5 0.5 0.5 0.5 0.5 0.5 0.5 0.5 0.5 0.5 0.5 0.5 0.5 0.5 0.5 0.5 0.5 0.5 0.5 0.5 0.5 0.5 0.5 0.5 0.5 0.5 0.5 0.5 0.5 0.5 0.5 0.5 0.5 0.5 0.5 0.5 0.5 0.5 0.5 0.5 0.5 0.5 0.5 0.5 0.5 0.5 0.5 0.5 0.5 0.5 0.5 0.5 0.5 0.5 0.5 0.5 0.5 0.5 0.5 0.5 0.37282 0.6271800000000001 0.942674 0.05732599999999999 0.235378 0.764622 0.950153 0.049846999999999975 0.5 0.5 0.5 0.5 0.5 0.5 0.5 0.5 0.5 0.5 0.5 0.5 0.5 0.5 0.5 0.5 0.5 0.5 0.5 0.5 0.5 0.5 0.5 0.5 0.5 0.5 0.5 0.5 0.5 0.5 0.5 0.5 0.5 0.5 0.5 0.5 0.5 0.5 0.5 0.5 0.5 0.5 0.5 0.5 0.5 0.5 0.5 0.5 0.5 0.5 0.5 0.5 0.5 0.5 0.5 0.5 0.5 0.5 0.5 0.5 0.5 0.5 0.5 0.5 0.5 0.5 0.5 0.5 0.5 0.5 0.5 0.5 0.5 0.5 0.5 0.5 0.5 0.5 0.5 0.5 0.5 0.5 0.5 0.5 0.5 0.5 0.5 0.5 0.5 0.5 0.5 0.5 0.5 0.5 0.5 0.5 0.5 0.5 0.5 0.5 0.5 0.5 0.5 0.5 0.5 0.5 0.5 0.5 0.5 0.5 0.5 0.5 0.5 0.5 0.5 0.5 0.5 0.5 0.5 0.5 0.5 0.5 0.5 0.5 0.5 0.5 0.5 0.5 0.5 0.5 0.5 0.5 0.5 0.5 0.5 0.5 0.5 0.5 0.5 0.5 0.452085 0.5479149999999999 0.450806 0.549194 0.581872 0.41812800000000006 0.90853 0.09147000000000005 0.5 0.5 0.5 0.5 0.5 0.5 0.5 0.5 0.163615 0.8363849999999999 0.542651 0.457349 0.5 0.5 0.5 0.5 0.5 0.5 0.5 0.5 0.5 0.5 0.5 0.5 0.5 0.5 0.5 0.5 0.5 0.5 0.5 0.5 0.5 0.5 0.5 0.5 0.5 0.5 0.5 0.5 0.5 0.5 0.5 0.5 0.5 0.5 0.5 0.5 0.5 0.5 0.5 0.5 0.5 0.5 0.5 0.5 0.5 0.5 0.5 0.5 0.5 0.5 0.5 0.5 0.5 0.5 0.5 0.5 0.5 0.5 0.5 0.5 0.5 0.5 0.5 0.5 0.5 0.5 0.5 0.5 0.5 0.5 0.5 0.5 0.5 0.5 0.5 0.5 0.5 0.5 0.5 0.5 0.5 0.5 0.5 0.5 0.5 0.5 0.5 0.5 0.5 0.5 0.5 0.5 0.5 0.5 0.5 0.5 0.44836 0.55164 0.497858 0.502142 0.0730463 0.9269537 0.898953 0.101047 0.5 0.5 0.5 0.5 0.5 0.5 0.5 0.5 0.5 0.5 0.5 0.5 0.5 0.5 0.5 0.5 0.5 0.5 0.5 0.5 0.5 0.5 0.5 0.5 0.5 0.5 0.5 0.5 0.805829 0.19417099999999998 0.044075 0.955925 0.291787 0.708213 0.847782 0.15221799999999996 0.5 0.5 0.5 0.5 0.5 0.5 0.5 0.5 0.5 0.5 0.5 0.5 0.5 0.5 0.5 0.5 0.5 0.5 0.5 0.5 0.5 0.5 0.5 0.5 0.5 0.5 0.5 0.5 0.5 0.5 0.5 0.5 0.5 0.5 0.5 0.5 0.5 0.5 0.5 0.5 0.661439 0.338561 0.0310748 0.9689252 0.25926 0.74074 0.50922 0.49078 0.5 0.5 0.5 0.5 0.5 0.5 0.5 0.5 0.5 0.5 0.5 0.5 0.5 0.5 0.5 0.5 0.5 0.5 0.5 0.5 0.5 0.5 0.5 0.5 0.5 0.5 0.5 0.5 0.5 0.5 0.5 0.5 0.5 0.5 0.5 0.5 0.5 0.5 0.5 0.5 0.5 0.5 0.5 0.5 0.5 0.5 0.5 0.5 0.5 0.5 0.5 0.5 0.5 0.5 0.5 0.5 0.504789 0.49521099999999996 0.375894 0.624106 0.5 0.5 0.5 0.5 0.5 0.5 0.5 0.5 0.5 0.5 0.5 0.5 0.5 0.5 0.5 0.5 0.5 0.5 0.5 0.5 0.5 0.5 0.5 0.5 0.216337 0.783663 0.370253 0.6297470000000001 0.399729 0.600271 0.51211 0.48789000000000005 0.5 0.5 0.5 0.5 0.5 0.5 0.5 0.5 0.611865 0.388135 0.0984707 0.9015293 0.453881 0.546119 0.987759 0.012240999999999946 0.5 0.5 0.5 0.5 0.5 0.5 0.5 0.5 0.5 0.5 0.5 0.5 0.5 0.5 0.5 0.5 0.5 0.5 0.5 0.5 0.5 0.5 0.5 0.5 0.5 0.5 0.5 0.5 0.5 0.5 0.5 0.5 0.5 0.5 0.5 0.5 0.5 0.5 0.5 0.5 0.5 0.5 0.5 0.5 0.5 0.5 0.5 0.5 0.5 0.5 0.5 0.5 0.5 0.5 0.5 0.5 0.5 0.5 0.5 0.5 0.5 0.5 0.5 0.5 0.5 0.5 0.5 0.5 0.5 0.5 0.5 0.5 0.5 0.5 0.5 0.5 0.5 0.5 0.5 0.5 0.5 0.5 0.5 0.5 0.5 0.5 0.5 0.5 0.5 0.5 0.5 0.5 0.5 0.5 0.5 0.5 0.5 0.5 0.5 0.5 0.5 0.5 0.5 0.5 0.5 0.5 0.5 0.5 0.5 0.5 0.5 0.5 0.5 0.5 0.5 0.5 0.5 0.5 0.5 0.5 0.5 0.5 0.5 0.5 0.5 0.5 0.5 0.5 0.5 0.5 0.5 0.5 0.5 0.5 0.5 0.5 0.5 0.5 0.5 0.5 0.5 0.5 0.5 0.5 0.5 0.5 0.5 0.5 0.5 0.5 0.5 0.5 0.5 0.5 0.5 0.5 0.5 0.5 0.5 0.5 0.5 0.5 0.5 0.5 0.5 0.5 0.5 0.5 0.5 0.5 0.5 0.5 0.5 0.5 0.5 0.5 0.5 0.5 0.5 0.5 0.5 0.5 0.5 0.5 0.5 0.5 0.5 0.5 0.247879 0.752121 0.850512 0.14948799999999995 0.0970967 0.9029033 0.33664 0.66336 0.5 0.5 0.5 0.5 0.5 0.5 0.5 0.5 0.5 0.5 0.5 0.5 0.5 0.5 0.5 0.5 0.5 0.5 0.5 0.5 0.5 0.5 0.5 0.5 0.5 0.5 0.5 0.5 0.5 0.5 0.5 0.5 0.5 0.5 0.5 0.5 0.5 0.5 0.5 0.5 0.5 0.5 0.5 0.5 0.5 0.5 0.5 0.5 0.5 0.5 0.5 0.5 0.5 0.5 0.5 0.5 0.5 0.5 0.5 0.5 0.135434 0.864566 0.283469 0.716531 0.957917 0.04208299999999998 0.868504 0.13149599999999995 0.5 0.5 0.5 0.5 0.5 0.5 0.5 0.5 0.5 0.5 0.5 0.5 0.5 0.5 0.5 0.5 0.5 0.5 0.5 0.5 0.5 0.5 0.5 0.5 0.5 0.5 0.5 0.5 0.5 0.5 0.5 0.5 0.899644 0.100356 0.341204 0.6587959999999999 0.86288 0.13712000000000002 0.744947 0.255053 0.5 0.5 0.5 0.5 0.5 0.5 0.5 0.5 0.5 0.5 0.5 0.5 0.5 0.5 0.5 0.5 0.5 0.5 0.5 0.5 0.5 0.5 0.5 0.5 0.5 0.5 0.5 0.5 0.5 0.5 0.5 0.5 0.5 0.5 0.5 0.5 0.5 0.5 0.5 0.5 0.5 0.5 0.5 0.5 0.5 0.5 0.5 0.5 0.5 0.5 0.5 0.5 0.5 0.5 0.5 0.5 0.5 0.5 0.5 0.5 0.5 0.5 0.5 0.5 0.5 0.5 0.5 0.5 0.5 0.5 0.5 0.5 0.5 0.5 0.5 0.5 0.5 0.5 0.5 0.5 0.5 0.5 0.5 0.5 0.5 0.5 0.5 0.5 0.5 0.5 0.5 0.5 0.5 0.5 0.5 0.5 0.5 0.5 0.5 0.5 0.5 0.5 0.5 0.5 0.5 0.5 0.5 0.5 0.5 0.5 0.5 0.5 0.5 0.5 0.5 0.5 0.5 0.5 0.5 0.5 0.5 0.5 0.5 0.5 0.5 0.5 0.5 0.5 0.5 0.5 0.5 0.5 0.5 0.5 0.5 0.5 0.5 0.5 0.5 0.5 0.5 0.5 0.5 0.5 0.5 0.5 0.5 0.5 0.5 0.5 0.5 0.5 0.5 0.5 0.5 0.5 0.5 0.5 0.5 0.5 0.5 0.5 0.5 0.5 0.5 0.5 0.5 0.5 0.5 0.5 0.5 0.5 0.5 0.5 0.5 0.5 0.5 0.5 0.5 0.5 0.5 0.5 0.5 0.5 0.5 0.5 0.5 0.5 0.5 0.5 0.5 0.5 0.5 0.5 0.5 0.5 0.5 0.5 0.5 0.5 0.5 0.5 0.5 0.5 0.5 0.5 0.5 0.5 0.5 0.5 0.5 0.5 0.5 0.5 0.5 0.5 0.511684 0.488316 0.906997 0.09300299999999995 0.442445 0.557555 0.500286 0.499714 0.5 0.5 0.5 0.5 0.5 0.5 0.5 0.5 0.5 0.5 0.5 0.5 0.5 0.5 0.5 0.5 0.5 0.5 0.5 0.5 0.5 0.5 0.5 0.5 0.961349 0.03865099999999999 0.0847952 0.9152048 0.64481 0.35519 0.25152 0.74848 0.5 0.5 0.5 0.5 0.5 0.5 0.5 0.5
-1 -2 0
1 2 0
-2 -3 0
2 3 0
-3 -261 4 0
-3 261 -4 0
3 -262 4 0
3 262 -4 0
-4 -263 5 0
-4 263 -5 0
4 -264 5 0
4 264 -5 0
-5 -6 0
5 6 0
-6 -7 0
6 7 0
-7 -269 8 0
-7 269 -8 0
7 -270 8 0
7 270 -8 0
-8 -9 0
8 9 0
-9 -10 0
9 10 0
-10 11 0
10 -11 0
-11 -12 0
11 12 0
-12 13 0
12 -13 0
-13 -14 0
13 14 0
-14 15 0
14 -15 0
-15 -16 0
15 16 0
-1 -17 0
1 17 0
-17 -2 -18 0
-17 2 18 0
17 -2 18 0
17 2 -18 0
-18 -3 -19 0
-18 3 -19 0
18 -3 19 0
18 3 -19 0
-19 -4 -20 0
-19 4 20 0
19 -4 -20 0
19 4 20 0
-20 -5 21 0
-20 5 -21 0
20 -5 21 0
20 5 -21 0
-21 -6 -22 0
-21 6 22 0
21 -6 -22 0
21 6 22 0
-22 -7 23 0
-22 7 -23 0
22 -7 23 0
22 7 23 0
-23 -8 24 0
-23 8 -24 0
23 -8 -24 0
23 8 24 0
-24 -9 -25 0
-24 9 -25 0
24 -9 25 0
24 9 -25 0
-25 -10 -26 0
-25 10 26 0
25 -10 26 0
25 10 -26 0
-26 -11 -27 0
-26 11 -27 0
26 -11 27 0
26 11 -27 0
-27 -12 -28 0
-27 12 28 0
27 -12 28 0
27 12 -28 0
-28 -13 -29 0
-28 13 29 0
28 -13 29 0
28 13 29 0
-29 -14 -30 0
-29 14 30 0
29 -14 -30 0
29 14 -30 0
-30 -15 -31 0
-30 15 -31 0
30 -15 -31 0
30 15 31 0
-31 -16 32 0
-31 16 -32 0
31 -16 -32 0
31 16 32 0
-17 -33 0
17 33 0
-33 -18 34 0
-33 18 34 0
33 -18 -34 0
33 18 34 0
-34 -19 35 0
-34 19 35 0
34 -19 -35 0
34 19 -35 0
-35 -20 -36 0
-35 20 36 0
35 -20 -36 0
35 20 36 0
-36 -21 37 0
-36 21 37 0
36 -21 37 0
36 21 -37 0
-37 -22 -38 0
-37 22 38 0
37 -22 38 0
37 22 38 0
-38 -23 -39 0
-38 23 39 0
38 -23 -39 0
38 23 -39 0
-39 -24 40 0
-39 24 40 0
39 -24 -40 0
39 24 40 0
-40 -25 41 0
-40 25 -41 0
40 -25 41 0
40 25 -41 0
-41 -26 -42 0
-41 26 42 0
41 -26 42 0
41 26 42 0
-42 -27 -43 0
-42 27 43 0
42 -27 -43 0
42 27 43 0
-43 -28 -44 0
-43 28 -44 0
43 -28 44 0
43 28 44 0
-44 -29 -45 0
-44 29 45 0
44 -29 45 0
44 29 -45 0
-45 -30 -399 46 0
-45 -30 399 -46 0
-45 30 -400 46 0
-45 30 400 -46 0
45 -30 -401 46 0
45 -30 401 -46 0
45 30 -402 46 0
45 30 402 -46 0
-46 -31 47 0
-46 31 -47 0
46 -31 47 0
46 31 47 0
-47 -32 48 0
-47 32 -48 0
47 -32 48 0
47 32 -48 0
-33 49 0
33 -49 0
-49 -34 50 0
-49 34 50 0
49 -34 -50 0
49 34 50 0
-50 -35 51 0
-50 35 51 0
50 -35 -51 0
50 35 51 0
-51 -36 -52 0
-51 36 52 0
51 -36 -52 0
51 36 -52 0
-52 -37 53 0
-52 37 -53 0
52 -37 -53 0
52 37 -53 0
-53 -38 54 0
-53 38 54 0
53 -38 -54 0
53 38 -54 0
-54 -39 55 0
-54 39 -55 0
54 -39 55 0
54 39 55 0
-55 -40 -56 0
-55 40 -56 0
55 -40 56 0
55 40 -56 0
-56 -41 -57 0
-56 41 57 0
56 -41 -57 0
56 41 57 0
-57 -42 -58 0
-57 42 58 0
57 -42 58 0
57 42 -58 0
-58 -43 59 0
-58 43 -59 0
58 -43 -59 0
58 43 59 0
-59 -44 60 0
-59 44 -60 0
59 -44 -60 0
59 44 60 0
-60 -45 -61 0
-60 45 61 0
60 -45 61 0
60 45 61 0
-61 -46 62 0
-61 46 -62 0
61 -46 62 0
61 46 62 0
-62 -47 -63 0
-62 47 -63 0
62 -47 63 0
62 47 63 0
-63 -48 64 0
-63 48 -64 0
63 -48 64 0
63 48 -64 0
-49 -65 0
49 65 0
-65 -50 66 0
-65 50 66 0
65 -50 -66 0
65 50 -66 0
-66 -51 -67 0
-66 51 -67 0
66 -51 67 0
66 51 -67 0
-67 -52 -483 68 0
-67 -52 483 -68 0
-67 52 -484 68 0
-67 52 484 -68 0
67 -52 -485 68 0
67 -52 485 -68 0
67 52 -486 68 0
67 52 486 -68 0
-68 -53 69 0
-68 53 -69 0
68 -53 -69 0
68 53 -69 0
-69 -54 -70 0
-69 54 70 0
69 -54 70 0
69 54 70 0
-70 -55 71 0
-70 55 -71 0
70 -55 71 0
70 55 -71 0
-71 -56 72 0
-71 56 -72 0
71 -56 -72 0
71 56 72 0
-72 -57 -73 0
-72 57 -73 0
72 -57 -73 0
72 57 73 0
-73 -58 74 0
-73 58 -74 0
73 -58 74 0
73 58 -74 0
-74 -59 75 0
-74 59 -75 0
74 -59 -75 0
74 59 75 0
-75 -60 -76 0
-75 60 -76 0
75 -60 -76 0
75 60 76 0
-76 -61 77 0
-76 61 -77 0
76 -61 77 0
76 61 -77 0
-77 -62 -78 0
-77 62 78 0
77 -62 78 0
77 62 78 0
-78 -63 79 0
-78 63 79 0
78 -63 -79 0
78 63 -79 0
-79 -64 -80 0
-79 64 80 0
79 -64 80 0
79 64 80 0
-65 81 0
65 -81 0
-81 -66 -82 0
-81 66 -82 0
81 -66 82 0
81 66 -82 0
-82 -67 -83 0
-82 67 -83 0
82 -67 83 0
82 67 83 0
-83 -68 84 0
-83 68 84 0
83 -68 -84 0
83 68 84 0
-84 -69 -85 0
-84 69 85 0
84 -69 -85 0
84 69 -85 0
-85 -70 -86 0
-85 70 86 0
85 -70 -86 0
85 70 86 0
-86 -71 87 0
-86 71 87 0
86 -71 87 0
86 71 -87 0
-87 -72 88 0
-87 72 88 0
87 -72 -88 0
87 72 -88 0
-88 -73 -565 89 0
-88 -73 565 -89 0
-88 73 -566 89 0
-88 73 566 -89 0
88 -73 -567 89 0
88 -73 567 -89 0
88 73 -568 89 0
88 73 568 -89 0
-89 -74 -569 90 0
-89 -74 569 -90 0
-89 74 -570 90 0
-89 74 570 -90 0
89 -74 -571 90 0
89 -74 571 -90 0
89 74 -572 90 0
89 74 572 -90 0
-90 -75 -91 0
-90 75 -91 0
90 -75 91 0
90 75 -91 0
-91 -76 -92 0
-91 76 -92 0
91 -76 92 0
91 76 -92 0
-92 -77 93 0
-92 77 -93 0
92 -77 93 0
92 77 -93 0
-93 -78 94 0
-93 78 -94 0
93 -78 94 0
93 78 94 0
-94 -79 95 0
-94 79 95 0
94 -79 -95 0
94 79 -95 0
-95 -80 -96 0
-95 80 -96 0
95 -80 96 0
95 80 -96 0
-81 97 0
81 -97 0
-97 -82 98 0
-97 82 -98 0
97 -82 98 0
97 82 98 0
-98 -83 -603 99 0
-98 -83 603 -99 0
-98 83 -604 99 0
-98 83 604 -99 0
98 -83 -605 99 0
98 -83 605 -99 0
98 83 -606 99 0
98 83 606 -99 0
-99 -84 100 0
-99 84 100 0
99 -84 -100 0
99 84 100 0
-100 -85 -101 0
-100 85 101 0
100 -85 101 0
100 85 -101 0
-101 -86 -615 102 0
-101 -86 615 -102 0
-101 86 -616 102 0
-101 86 616 -102 0
101 -86 -617 102 0
101 -86 617 -102 0
101 86 -618 102 0
101 86 618 -102 0
-102 -87 -619 103 0
-102 -87 619 -103 0
-102 87 -620 103 0
-102 87 620 -103 0
102 -87 -621 103 0
102 -87 621 -103 0
102 87 -622 103 0
102 87 622 -103 0
-103 -88 -104 0
-103 88 104 0
103 -88 -104 0
103 88 104 0
-104 -89 105 0
-104 89 105 0
104 -89 105 0
104 89 -105 0
-105 -90 -106 0
-105 90 106 0
105 -90 106 0
105 90 -106 0
-106 -91 107 0
-106 91 -107 0
106 -91 107 0
106 91 107 0
-107 -92 -639 108 0
-107 -92 639 -108 0
-107 92 -640 108 0
-107 92 640 -108 0
107 -92 -641 108 0
107 -92 641 -108 0
107 92 -642 108 0
107 92 642 -108 0
-108 -93 109 0
-108 93 109 0
108 -93 -109 0
108 93 -109 0
-109 -94 -110 0
-109 94 -110 0
109 -94 -110 0
109 94 110 0
-110 -95 -111 0
-110 95 -111 0
110 -95 111 0
110 95 111 0
-111 -96 -112 0
-111 96 -112 0
111 -96 112 0
111 96 112 0
-97 113 0
97 -113 0
-113 -98 114 0
-113 98 114 0
113 -98 -114 0
113 98 114 0
-114 -99 -115 0
-114 99 -115 0
114 -99 -115 0
114 99 115 0
-115 -100 -116 0
-115 100 116 0
115 -100 -116 0
115 100 116 0
-116 -101 -117 0
-116 101 -117 0
116 -101 -117 0
116 101 117 0
-117 -102 118 0
-117 102 -118 0
117 -102 -118 0
117 102 -118 0
-118 -103 119 0
-118 103 119 0
118 -103 119 0
118 103 -119 0
-119 -104 -120 0
-119 104 120 0
119 -104 -120 0
119 104 120 0
-120 -105 -121 0
-120 105 121 0
120 -105 -121 0
120 105 121 0
-121 -106 122 0
-121 106 122 0
121 -106 122 0
121 106 -122 0
-122 -107 -123 0
-122 107 -123 0
122 -107 -123 0
122 107 123 0
-123 -108 -701 124 0
-123 -108 701 -124 0
-123 108 -702 124 0
-123 108 702 -124 0
123 -108 -703 124 0
123 -108 703 -124 0
123 108 -704 124 0
123 108 704 -124 0
-124 -109 -125 0
-124 109 125 0
124 -109 -125 0
124 109 125 0
-125 -110 -126 0
-125 110 126 0
125 -110 126 0
125 110 126 0
-126 -111 127 0
-126 111 127 0
126 -111 -127 0
126 111 127 0
-127 -112 128 0
-127 112 128 0
127 -112 -128 0
127 112 -128 0
-113 -129 0
113 129 0
-129 -114 130 0
-129 114 130 0
129 -114 -130 0
129 114 130 0
-130 -115 -131 0
-130 115 131 0
130 -115 -131 0
130 115 131 0
-131 -116 132 0
-131 116 -132 0
131 -116 132 0
131 116 132 0
-132 -117 133 0
-132 117 -133 0
132 -117 133 0
132 117 -133 0
-133 -118 -134 0
-133 118 -134 0
133 -118 -134 0
133 118 134 0
-134 -119 -135 0
-134 119 135 0
134 -119 -135 0
134 119 135 0
-135 -120 136 0
-135 120 -136 0
135 -120 -136 0
135 120 -136 0
-136 -121 137 0
-136 121 137 0
136 -121 137 0
136 121 -137 0
-137 -122 138 0
-137 122 138 0
137 -122 -138 0
137 122 -138 0
-138 -123 -139 0
-138 123 139 0
138 -123 139 0
138 123 -139 0
-139 -124 140 0
-139 124 -140 0
139 -124 -140 0
139 124 140 0
-140 -125 141 0
-140 125 -141 0
140 -125 -141 0
140 125 141 0
-141 -126 142 0
-141 126 -142 0
141 -126 142 0
141 126 142 0
-142 -127 -775 143 0
-142 -127 775 -143 0
-142 127 -776 143 0
-142 127 776 -143 0
142 -127 -777 143 0
142 -127 777 -143 0
142 127 -778 143 0
142 127 778 -143 0
-143 -128 144 0
-143 128 144 0
143 -128 144 0
143 128 -144 0
-129 -783 145 0
-129 783 -145 0
129 -784 145 0
129 784 -145 0
-145 -130 -146 0
-145 130 146 0
145 -130 -146 0
145 130 -146 0
-146 -131 147 0
-146 131 147 0
146 -131 -147 0
146 131 147 0
-147 -132 148 0
-147 132 -148 0
147 -132 -148 0
147 132 148 0
-148 -133 -149 0
-148 133 -149 0
148 -133 -149 0
148 133 149 0
-149 -134 150 0
-149 134 -150 0
149 -134 150 0
149 134 -150 0
-150 -135 -151 0
-150 135 -151 0
150 -135 -151 0
150 135 151 0
-151 -136 -152 0
-151 136 -152 0
151 -136 152 0
151 136 -152 0
-152 -137 153 0
-152 137 153 0
152 -137 153 0
152 137 -153 0
-153 -138 -154 0
-153 138 154 0
153 -138 154 0
153 138 -154 0
-154 -139 155 0
-154 139 -155 0
154 -139 -155 0
154 139 155 0
-155 -140 -156 0
-155 140 -156 0
155 -140 -156 0
155 140 156 0
-156 -141 -157 0
-156 141 -157 0
156 -141 157 0
156 141 -157 0
-157 -142 -833 158 0
-157 -142 833 -158 0
-157 142 -834 158 0
-157 142 834 -158 0
157 -142 -835 158 0
157 -142 835 -158 0
157 142 -836 158 0
157 142 836 -158 0
-158 -143 -159 0
-158 143 159 0
158 -143 159 0
158 143 159 0
-159 -144 160 0
-159 144 160 0
159 -144 -160 0
159 144 160 0
-145 161 0
145 -161 0
-161 -146 -162 0
-161 146 162 0
161 -146 162 0
161 146 -162 0
-162 -147 -851 163 0
-162 -147 851 -163 0
-162 147 -852 163 0
-162 147 852 -163 0
162 -147 -853 163 0
162 -147 853 -163 0
162 147 -854 163 0
162 147 854 -163 0
-163 -148 -164 0
-163 148 164 0
163 -148 164 0
163 148 164 0
-164 -149 165 0
-164 149 -165 0
164 -149 165 0
164 149 165 0
-165 -150 -166 0
-165 150 166 0
165 -150 -166 0
165 150 166 0
-166 -151 -167 0
-166 151 167 0
166 -151 167 0
166 151 -167 0
-167 -152 168 0
-167 152 168 0
167 -152 -168 0
167 152 -168 0
-168 -153 -875 169 0
-168 -153 875 -169 0
-168 153 -876 169 0
-168 153 876 -169 0
168 -153 -877 169 0
168 -153 877 -169 0
168 153 -878 169 0
168 153 878 -169 0
-169 -154 170 0
-169 154 170 0
169 -154 170 0
169 154 -170 0
-170 -155 171 0
-170 155 171 0
170 -155 -171 0
170 155 -171 0
-171 -156 -172 0
-171 156 -172 0
171 -156 172 0
171 156 -172 0
-172 -157 173 0
-172 157 173 0
172 -157 -173 0
172 157 173 0
-173 -158 174 0
-173 158 -174 0
173 -158 -174 0
173 158 -174 0
-174 -159 -175 0
-174 159 -175 0
174 -159 -175 0
174 159 175 0
-175 -160 -176 0
-175 160 -176 0
175 -160 176 0
175 160 -176 0
-161 -907 177 0
-161 907 -177 0
161 -908 177 0
161 908 -177 0
-177 -162 178 0
-177 162 -178 0
177 -162 178 0
177 162 178 0
-178 -163 -179 0
-178 163 -179 0
178 -163 179 0
178 163 179 0
-179 -164 -180 0
-179 164 -180 0
179 -164 -180 0
179 164 180 0
-180 -165 -921 181 0
-180 -165 921 -181 0
-180 165 -922 181 0
-180 165 922 -181 0
180 -165 -923 181 0
180 -165 923 -181 0
180 165 -924 181 0
180 165 924 -181 0
-181 -166 -182 0
-181 166 -182 0
181 -166 182 0
181 166 -182 0
-182 -167 -929 183 0
-182 -167 929 -183 0
-182 167 -930 183 0
-182 167 930 -183 0
182 -167 -931 183 0
182 -167 931 -183 0
182 167 -932 183 0
182 167 932 -183 0
-183 -168 -184 0
-183 168 184 0
183 -168 -184 0
183 168 184 0
-184 -169 -185 0
-184 169 -185 0
184 -169 185 0
184 169 185 0
-185 -170 186 0
-185 170 186 0
185 -170 186 0
185 170 -186 0
-186 -171 -187 0
-186 171 -187 0
186 -171 187 0
186 171 -187 0
-187 -172 188 0
-187 172 -188 0
187 -172 -188 0
187 172 -188 0
-188 -173 189 0
-188 173 189 0
188 -173 -189 0
188 173 -189 0
-189 -174 190 0
-189 174 190 0
189 -174 -190 0
189 174 190 0
-190 -175 191 0
-190 175 -191 0
190 -175 -191 0
190 175 -191 0
-191 -176 192 0
-191 176 192 0
191 -176 192 0
191 176 -192 0
-177 193 0
177 -193 0
-193 -178 194 0
-193 178 194 0
193 -178 -194 0
193 178 194 0
-194 -179 -195 0
-194 179 195 0
194 -179 195 0
194 179 195 0
-195 -180 196 0
-195 180 -196 0
195 -180 -196 0
195 180 -196 0
-196 -181 197 0
-196 181 197 0
196 -181 197 0
196 181 -197 0
-197 -182 -198 0
-197 182 -198 0
197 -182 -198 0
197 182 198 0
-198 -183 199 0
-198 183 -199 0
198 -183 -199 0
198 183 199 0
-199 -184 -200 0
-199 184 200 0
199 -184 200 0
199 184 -200 0
-200 -185 201 0
-200 185 -201 0
200 -185 201 0
200 185 -201 0
-201 -186 202 0
-201 186 202 0
201 -186 -202 0
201 186 202 0
-202 -187 203 0
-202 187 -203 0
202 -187 203 0
202 187 -203 0
-203 -188 -204 0
-203 188 -204 0
203 -188 204 0
203 188 -204 0
-204 -189 205 0
-204 189 -205 0
204 -189 -205 0
204 189 205 0
-205 -190 -206 0
-205 190 206 0
205 -190 -206 0
205 190 206 0
-206 -191 -207 0
-206 191 -207 0
206 -191 -207 0
206 191 207 0
-207 -192 -1027 208 0
-207 -192 1027 -208 0
-207 192 -1028 208 0
-207 192 1028 -208 0
207 -192 -1029 208 0
207 -192 1029 -208 0
207 192 -1030 208 0
207 192 1030 -208 0
-193 209 0
193 -209 0
-209 -194 -210 0
-209 194 210 0
209 -194 210 0
209 194 210 0
-210 -195 -211 0
-210 195 -211 0
210 -195 211 0
210 195 -211 0
-211 -196 212 0
-211 196 -212 0
211 -196 212 0
211 196 212 0
-212 -197 213 0
-212 197 213 0
212 -197 213 0
212 197 -213 0
-213 -198 214 0
-213 198 -214 0
213 -198 214 0
213 198 214 0
-214 -199 -215 0
-214 199 215 0
214 -199 -215 0
214 199 215 0
-215 -200 -216 0
-215 200 216 0
215 -200 216 0
215 200 216 0
-216 -201 -1061 217 0
-216 -201 1061 -217 0
-216 201 -1062 217 0
-216 201 1062 -217 0
216 -201 -1063 217 0
216 -201 1063 -217 0
216 201 -1064 217 0
216 201 1064 -217 0
-217 -202 218 0
-217 202 218 0
217 -202 -218 0
217 202 -218 0
-218 -203 219 0
-218 203 -219 0
218 -203 219 0
218 203 -219 0
-219 -204 220 0
-219 204 -220 0
219 -204 220 0
219 204 -220 0
-220 -205 221 0
-220 205 221 0
220 -205 -221 0
220 205 221 0
-221 -206 -1081 222 0
-221 -206 1081 -222 0
-221 206 -1082 222 0
-221 206 1082 -222 0
221 -206 -1083 222 0
221 -206 1083 -222 0
221 206 -1084 222 0
221 206 1084 -222 0
-222 -207 223 0
-222 207 -223 0
222 -207 -223 0
222 207 -223 0
-223 -208 224 0
-223 208 224 0
223 -208 224 0
223 208 -224 0
-209 225 0
209 -225 0
-225 -210 226 0
-225 210 226 0
225 -210 -226 0
225 210 -226 0
-226 -211 227 0
-226 211 -227 0
226 -211 -227 0
226 211 227 0
-227 -212 -228 0
-227 212 -228 0
227 -212 -228 0
227 212 228 0
-228 -213 229 0
-228 213 229 0
228 -213 -229 0
228 213 229 0
-229 -214 230 0
-229 214 -230 0
229 -214 -230 0
229 214 230 0
-230 -215 -231 0
-230 215 231 0
230 -215 231 0
230 215 231 0
-231 -216 -232 0
-231 216 -232 0
231 -216 232 0
231 216 -232 0
-232 -217 -233 0
-232 217 -233 0
232 -217 -233 0
232 217 233 0
-233 -218 -234 0
-233 218 234 0
233 -218 -234 0
233 218 234 0
-234 -219 -235 0
-234 219 -235 0
234 -219 235 0
234 219 235 0
-235 -220 236 0
-235 220 236 0
235 -220 -236 0
235 220 236 0
-236 -221 237 0
-236 221 237 0
236 -221 237 0
236 221 -237 0
-237 -222 -238 0
-237 222 -238 0
237 -222 -238 0
237 222 238 0
-238 -223 -239 0
-238 223 239 0
238 -223 239 0
238 223 -239 0
-239 -224 240 0
-239 224 -240 0
239 -224 -240 0
239 224 -240 0
-225 -241 0
225 241 0
-241 -226 242 0
-241 226 -242 0
241 -226 242 0
241 226 242 0
-242 -227 -243 0
-242 227 243 0
242 -227 -243 0
242 227 -243 0
-243 -228 -244 0
-243 228 244 0
243 -228 244 0
243 228 -244 0
-244 -229 245 0
-244 229 245 0
244 -229 -245 0
244 229 -245 0
-245 -230 -246 0
-245 230 246 0
245 -230 246 0
245 230 246 0
-246 -231 247 0
-246 231 247 0
246 -231 -247 0
246 231 -247 0
-247 -232 -248 0
-247 232 248 0
247 -232 -248 0
247 232 -248 0
-248 -233 249 0
-248 233 -249 0
248 -233 249 0
248 233 249 0
-249 -234 250 0
-249 234 250 0
249 -234 -250 0
249 234 -250 0
-250 -235 -1193 251 0
-250 -235 1193 -251 0
-250 235 -1194 251 0
-250 235 1194 -251 0
250 -235 -1195 251 0
250 -235 1195 -251 0
250 235 -1196 251 0
250 235 1196 -251 0
-251 -236 -252 0
-251 236 -252 0
251 -236 252 0
251 236 252 0
-252 -237 253 0
-252 237 -253 0
252 -237 253 0
252 237 -253 0
-253 -238 254 0
-253 238 -254 0
253 -238 254 0
253 238 254 0
-254 -239 -1209 255 0
-254 -239 1209 -255 0
-254 239 -1210 255 0
-254 239 1210 -255 0
254 -239 -1211 255 0
254 -239 1211 -255 0
254 239 -1212 255 0
254 239 1212 -255 0
-255 -240 -256 0
-255 240 256 0
255 -240 256 0
255 240 -256 0
256 0
