data/benchmarks/bayes/90-16-4-q.gr
p tw 1216 965
158 833
166 181
214 230
198 213
15 30
67 68
47 62
99 100
107 122
159 160
139 154
8 9
129 784
40 41
89 571
21 37
199 214
251 252
48 63
100 101
80 95
132 133
140 155
172 187
41 42
90 572
73 74
167 932
232 247
133 134
14 15
153 875
173 188
225 226
162 853
216 1062
22 37
74 75
106 107
182 929
114 129
166 167
15 16
74 569
47 48
226 227
206 221
55 70
107 108
254 1210
88 104
201 1064
147 162
199 200
180 196
89 566
29 45
235 1196
239 254
250 1194
140 141
168 877
8 269
121 137
142 834
232 233
213 229
81 82
108 701
62 78
240 255
46 399
173 174
154 170
22 23
3 19
233 234
114 115
95 111
68 484
155 171
206 207
187 203
55 56
36 52
214 229
96 112
147 148
157 836
128 144
87 619
123 703
207 208
188 204
129 783
239 240
220 236
89 570
21 36
69 85
222 1081
45 402
129 145
161 177
124 704
10 26
221 237
205 220
167 931
54 69
102 118
208 1030
181 182
162 178
146 161
194 210
43 59
216 1061
3 261
103 119
87 102
135 151
181 923
214 215
195 211
179 194
227 243
28 43
76 92
103 622
88 103
136 152
120 135
177 907
168 184
21 22
180 195
89 565
228 244
29 44
77 93
61 76
113 114
99 606
121 136
169 185
153 168
205 206
142 833
2 17
54 55
213 228
62 77
110 126
94 109
146 147
154 169
202 218
3 18
51 67
35 50
87 88
102 616
95 110
68 483
127 142
143 159
179 180
28 29
9 25
74 572
187 202
235 251
36 51
88 89
68 83
120 121
157 835
128 143
180 181
160 175
29 30
123 702
61 62
42 58
220 235
69 84
121 122
101 116
153 154
134 150
2 3
213 214
10 25
62 63
94 95
75 91
102 117
154 155
208 1029
3 4
35 36
73 566
16 32
194 209
246 247
43 58
95 96
127 128
102 620
108 124
135 150
181 922
187 188
36 37
17 33
68 69
49 65
227 242
165 923
76 91
103 621
109 125
168 183
220 221
87 622
69 70
201 217
50 66
101 102
82 98
52 484
99 605
161 162
142 158
10 11
23 39
253 254
234 250
102 103
83 99
143 778
194 195
175 191
43 44
24 40
56 72
255 1212
102 615
135 136
206 1081
116 132
176 192
227 228
208 224
76 77
9 24
57 73
168 169
192 1030
157 834
149 165
108 640
30 46
221 1084
209 225
42 57
90 106
150 166
134 149
180 921
182 198
98 604
31 47
75 90
101 618
123 139
161 907
208 1028
183 199
215 231
73 565
16 31
64 80
83 606
102 619
108 123
124 140
156 172
9 10
181 921
5 21
216 232
97 113
165 922
109 124
88 568
142 777
157 173
189 205
42 43
201 216
86 616
82 97
134 135
52 483
142 157
190 206
163 854
217 1063
23 38
75 76
222 238
234 249
83 98
131 147
115 130
143 777
175 190
223 239
207 1027
67 486
56 71
108 109
127 778
255 1211
116 131
226 241
164 180
49 50
208 223
5 263
57 72
109 110
167 182
89 104
192 1029
149 164
201 202
197 213
108 639
50 51
30 45
82 83
221 1083
63 79
90 105
142 143
200 215
23 24
4 20
98 603
182 197
234 235
83 84
141 156
115 116
101 617
123 138
175 176
233 248
24 25
56 57
37 53
215 230
64 79
116 117
174 189
83 605
183 930
156 171
57 58
167 168
38 54
89 90
70 86
149 150
207 222
130 146
88 567
30 31
142 776
11 27
147 854
189 204
241 242
90 91
148 163
200 201
71 87
86 615
182 183
163 179
31 32
141 142
169 878
12 28
251 1195
180 924
44 60
217 1062
4 262
222 237
123 124
181 196
239 1211
104 120
215 216
92 640
196 212
122 137
174 175
45 61
30 399
67 485
156 157
137 153
5 6
18 34
248 249
229 245
97 98
78 94
189 190
192 1028
170 186
148 149
19 35
63 78
107 642
90 571
111 127
222 223
203 219
4 19
52 68
162 852
144 160
122 123
236 252
37 52
85 101
207 1030
158 836
177 193
183 929
254 1209
26 42
201 1063
237 253
70 85
118 134
235 1195
250 1193
168 876
210 226
11 26
63 64
147 853
151 167
4 5
251 1194
169 877
211 227
44 59
4 261
239 1210
153 878
37 38
92 639
182 932
196 211
155 170
185 201
96 111
18 33
70 71
229 244
130 131
188 203
89 569
11 12
170 185
45 401
218 234
124 703
107 641
90 570
163 164
221 236
167 930
108 704
44 45
46 402
25 41
203 218
255 256
162 177
162 851
144 159
196 197
103 118
155 156
236 251
137 138
195 210
247 248
30 402
158 835
18 19
229 230
136 151
188 189
201 1062
59 75
118 133
170 171
228 243
77 92
129 130
235 1194
168 875
222 1084
210 225
111 112
169 184
221 222
92 108
151 166
203 204
184 200
110 125
162 163
33 49
202 217
254 255
125 141
51 66
103 104
153 877
84 100
216 1064
236 237
217 233
85 86
143 158
182 931
66 82
195 196
74 571
177 178
235 250
158 174
136 137
7 23
117 133
254 1212
7 270
118 119
123 701
99 115
77 78
228 229
58 74
89 568
210 211
191 207
169 170
45 400
40 56
250 1196
124 702
151 152
132 148
110 111
107 640
142 836
91 107
167 929
108 703
243 244
224 240
202 203
25 40
73 89
51 52
32 48
165 181
143 144
14 30
68 486
235 236
106 122
65 81
198 214
103 620
47 63
6 22
87 621
139 155
50 65
98 114
89 572
235 1193
99 604
222 1083
80 96
39 55
172 188
25 26
24 39
72 88
84 99
17 18
176 191
74 570
117 132
157 833
58 73
89 567
150 165
31 46
142 835
91 106
108 702
208 1027
183 198
231 247
32 47
84 85
158 159
217 218
102 618
124 139
206 1084
5 20
68 485
216 231
117 118
165 921
250 251
103 619
157 172
209 210
6 21
58 59
87 620
123 704
191 192
98 113
150 151
99 603
222 1082
190 205
242 243
113 129
39 54
91 92
163 853
205 221
131 146
183 184
54 70
143 776
13 29
165 166
223 238
146 162
72 87
73 568
124 125
105 121
127 777
255 1210
3 262
102 622
164 179
216 217
87 103
65 66
181 924
46 62
198 199
179 195
157 158
28 44
6 7
138 154
139 140
197 212
249 250
120 136
98 99
177 908
221 1082
79 95
230 246
190 191
61 77
39 40
52 486
171 187
20 36
172 173
153 169
131 132
2 18
112 128
101 616
223 224
94 110
72 73
204 220
53 69
231 246
164 165
35 51
83 604
102 617
145 161
206 1083
127 143
38 53
86 102
197 198
130 145
68 84
88 566
142 775
178 194
27 43
238 254
108 642
160 176
71 86
119 135
163 178
101 117
12 27
60 76
163 852
98 606
180 923
217 1061
104 119
152 168
1 17
143 775
231 232
212 228
13 28
45 60
93 109
67 484
73 567
127 776
105 120
255 1209
137 152
38 39
102 621
46 61
78 93
126 142
138 153
165 924
186 202
192 1027
19 34
71 72
230 245
221 1081
79 94
111 126
86 618
12 13
171 186
52 485
219 235
20 35
52 67
104 105
112 127
13 14
101 615
45 46
204 219
53 68
105 106
85 100
207 1029
83 603
193 209
206 1082
46 47
26 41
78 79
237 252
86 101
138 139
19 20
178 193
88 565
230 231
27 42
79 80
147 852
238 253
108 641
119 134
171 172
20 21
52 53
251 1193
169 876
211 226
60 75
163 851
98 605
180 922
239 1209
152 167
145 784
204 205
53 54
34 50
212 227
161 908
93 108
145 146
67 483
127 775
26 27
185 200
237 238
86 87
183 932
67 83
126 141
178 179
159 175
27 28
8 24
186 201
238 239
218 233
142 778
119 120
100 116
90 569
86 617
211 212
192 208
60 61
46 401
41 57
219 234
152 153
217 1064
4 264
1 2
133 149
212 213
244 245
115 131
93 94
225 241
92 642
74 90
207 1028
185 186
30 401
158 834
166 182
15 31
245 246
226 242
201 1061
126 127
59 74
107 123
5 264
186 187
167 183
218 219
89 105
199 215
48 64
147 851
92 107
140 156
219 220
200 216
184 199
232 248
169 875
81 97
141 157
125 140
153 876
173 189
162 854
145 783
22 38
216 1063
252 253
233 249
217 232
34 49
182 930
66 81
114 130
193 194
174 190
158 173
206 222
7 22
59 60
55 71
254 1211
183 931
7 269
67 82
99 114
147 163
159 174
207 223
191 206
8 23
239 255
45 399
40 55
92 93
168 878
8 270
250 1195
124 701
100 115
148 164
132 147
184 185
107 639
33 34
192 207
240 256
224 239
46 400
41 56
251 1196
73 88
125 126
4 263
133 148
181 197
165 180
34 35
239 1212
14 29
66 67
92 641
74 89
122 138
106 121
7 8
30 400
